NAME : 8.78394.tour
COMMENT : Length = 78394
COMMENT : Found by LKH-3 [Keld Helsgaun] Thu Jun 19 18:16:10 2025
TYPE : TOUR
DIMENSION : 100
TOUR_SECTION
1
64
83
38
32
25
35
3
43
76
54
55
26
36
96
57
33
8
84
5
52
23
95
65
69
2
97
75
62
16
92
46
86
56
19
21
98
89
11
58
20
7
87
12
59
30
48
31
40
6
66
99
22
9
4
37
91
53
39
94
44
24
42
61
17
70
45
15
49
82
100
34
10
28
73
27
63
68
47
50
77
78
14
81
51
88
67
80
79
41
85
29
13
74
90
72
18
60
71
93
-1
EOF
